579408
98,12,93,76,52,56,31,17,72,16,97,96,89,91,79,101,30,29,64,78,19,65,86,92,102,41,95,103,40,69,15,55,28,50,105,6,23,37,99,5,81,85,36,83,24,1,106,14,74,43,27,90,54,47,38,70,104,3,42,32,77,46,20,34,4,22,48,80,88,68,60,35,13,82,73,7,26,84,63,75,94,10,59,66,44,58,67,2,11,33,62,18,45,61,57,9,100,8,71,25,21,39,51,53,49,87